
Gurobi 7.0.1 (win64) logging started 04/03/17 17:11:52

Changed value of parameter LogFile to outputlogs\log_LPIP_prov_code_7_8_9_10_1491253912.log
   Prev: gurobi.log  Default: 
Optimize a model with 9684 rows, 421368 columns and 843170 nonzeros
Variable types: 0 continuous, 421368 integer (421368 binary)
Coefficient statistics:
  Matrix range     [1e+00, 4e+03]
  Objective range  [6e+00, 2e+07]
  Bounds range     [1e+00, 1e+00]
  RHS range        [1e+00, 4e+01]
Presolve removed 143 rows and 0 columns
Presolve time: 1.22s
Presolved: 9541 rows, 421368 columns, 843027 nonzeros

MIP start did not produce a new incumbent solution
MIP start violates constraint R4408 by 197.000000000

Variable types: 0 continuous, 421368 integer (421368 binary)

Root simplex log...

Iteration    Objective       Primal Inf.    Dual Inf.      Time
       0    0.0000000e+00   8.814000e+03   0.000000e+00    192s
    8957    7.2571122e+07   0.000000e+00   0.000000e+00    192s

Root relaxation: objective 7.257112e+07, 8957 iterations, 0.16 seconds

    Nodes    |    Current Node    |     Objective Bounds      |     Work
 Expl Unexpl |  Obj  Depth IntInf | Incumbent    BestBd   Gap | It/Node Time

     0     0 7.2571e+07    0   34          - 7.2571e+07      -     -  192s
Another try with MIP start
     0     0 7.4258e+07    0  577          - 7.4258e+07      -     -  234s
     0     0 7.4383e+07    0  562          - 7.4383e+07      -     -  236s
     0     0 7.5663e+07    0  805          - 7.5663e+07      -     -  237s
     0     0 7.5872e+07    0 1507          - 7.5872e+07      -     -  239s
     0     0 7.5941e+07    0 1552          - 7.5941e+07      -     -  242s
     0     0 7.5941e+07    0 1559          - 7.5941e+07      -     -  243s
     0     0 7.5982e+07    0   91          - 7.5982e+07      -     -  244s
     0     0 7.5983e+07    0   59          - 7.5983e+07      -     -  245s
     0     0 7.6003e+07    0   82          - 7.6003e+07      -     -  246s
     0     0 7.6003e+07    0   82          - 7.6003e+07      -     -  285s
     0     0 7.6339e+07    0 1156          - 7.6339e+07      -     -  286s
     0     0 7.6460e+07    0 1277          - 7.6460e+07      -     -  287s
     0     0 7.6460e+07    0 1279          - 7.6460e+07      -     -  288s
     0     0 7.6472e+07    0  104          - 7.6472e+07      -     -  289s
     0     0 7.6473e+07    0   98          - 7.6473e+07      -     -  289s
     0     0 7.6475e+07    0   86          - 7.6475e+07      -     -  290s
     0     0 7.6475e+07    0   86          - 7.6475e+07      -     -  328s
     0     0 7.6657e+07    0  957          - 7.6657e+07      -     -  328s
     0     0 7.6720e+07    0  177          - 7.6720e+07      -     -  329s
     0     0 7.6720e+07    0  165          - 7.6720e+07      -     -  345s
     0     0 7.6720e+07    0  165          - 7.6720e+07      -     -  386s
     0     0 7.6720e+07    0  165          - 7.6720e+07      -     -  427s
     0     0 7.6720e+07    0  165          - 7.6720e+07      -     -  467s
     0     0 7.6720e+07    0  165          - 7.6720e+07      -     -  507s
     0     0 7.6720e+07    0  165          - 7.6720e+07      -     -  548s
     0     2 7.6721e+07    0  181          - 7.6721e+07      -     -  552s
     1     4 7.6722e+07    1  146          - 7.6721e+07      -  2139  588s
     3     6 7.6722e+07    2  194          - 7.6722e+07      -   822  599s
     5     8 7.6726e+07    2 1323          - 7.6723e+07      -   735  641s
     9     9 7.6735e+07    4  127          - 7.6723e+07      -   674  664s
    11    12 7.6736e+07    5  158          - 7.6723e+07      -   612  682s
    13    14 7.6736e+07    6  158          - 7.6723e+07      -   566  693s
    16    17 7.6736e+07    8  128          - 7.6723e+07      -   467  707s
    22    23 7.6802e+07   13   76          - 7.6723e+07      -   350  726s
    28    29 7.6803e+07   18   60          - 7.6723e+07      -   290  749s
    35    37 7.6804e+07   22   48          - 7.6723e+07      -   234  765s
    45    45 7.6804e+07   30   40          - 7.6723e+07      -   188  795s
    56    57 7.6804e+07   38   40          - 7.6723e+07      -   155  818s
    67    68 7.6730e+07   13  195          - 7.6723e+07      -   134  859s
    68    69 7.6804e+07   49   70          - 7.6723e+07      -   142  879s
    80    81 7.6731e+07   14  236          - 7.6723e+07      -   133  920s
    81    82 7.6804e+07   60   90          - 7.6723e+07      -   135  949s
    95    96 7.6731e+07   15  284          - 7.6723e+07      -   121  990s
    96    97 7.6804e+07   72   90          - 7.6723e+07      -   120 1029s
   112   113 7.6805e+07   85   90          - 7.6723e+07      -   113 1419s
   130   132 7.6805e+07  101   90          - 7.6723e+07      -   102 1486s
   149   150 7.6732e+07   18  608          - 7.6723e+07      -  93.3 1528s
   150   150 7.6805e+07  118   90          - 7.6723e+07      -  93.6 1550s
   171   172 7.6732e+07   19  386          - 7.6723e+07      -  84.1 1590s
   173   174 7.6805e+07  136  100          - 7.6723e+07      -  84.5 1637s
   196   197 7.6732e+07   21  272          - 7.6723e+07      -  75.6 1678s
   197   198 7.6805e+07  159   96          - 7.6723e+07      -  75.9 1715s
   222   223 7.6732e+07   22  272          - 7.6723e+07      -  70.0 1761s
   223   224 7.6806e+07  184  158          - 7.6723e+07      -  71.2 1976s
   238   239 7.6732e+07   23 1514          - 7.6723e+07      -  76.0 2017s
   239   240 7.6806e+07  199  240          - 7.6723e+07      -  75.8 2052s
   268   269 7.6732e+07   24  393          - 7.6723e+07      -  78.2 2107s
   270   271 7.6806e+07  227   95          - 7.6723e+07      -  78.4 2150s
   303   304 7.6732e+07   26  573          - 7.6723e+07      -  70.9 2191s
   304   305 7.6806e+07  259   96          - 7.6723e+07      -  70.7 2248s
   340   341 7.6732e+07   27  431          - 7.6723e+07      -  63.7 2289s
   342   343 7.6806e+07  295   96          - 7.6723e+07      -  63.9 2326s
   382   383 7.6732e+07   29  387          - 7.6723e+07      -  58.4 2367s
   384   385 7.6806e+07  335   96          - 7.6723e+07      -  58.3 2423s
   424   425 7.6733e+07   31  345          - 7.6723e+07      -  54.5 2463s
   426   427 7.6806e+07  375  101          - 7.6723e+07      -  55.0 2503s
   431   432 7.6806e+07  379  323          - 7.6723e+07      -  55.8 2579s
   434   435 7.6806e+07  380  101          - 7.6723e+07      -  55.5 2665s
   459   460 7.6806e+07  403  339          - 7.6723e+07      -  53.7 2756s
   463   464 7.6806e+07  405  447          - 7.6723e+07      -  53.7 2798s
   515   513 7.6735e+07   40  383          - 7.6723e+07      -  48.8 2839s
   567   564 7.6845e+07  455  105          - 7.6723e+07      -  45.8 2846s
   691   685 7.6895e+07  517  105          - 7.6723e+07      -  38.3 2898s
   837   827 7.6895e+07  589  105          - 7.6723e+07      -  32.3 2946s
   983   970 7.6925e+07  657  110          - 7.6723e+07      -  28.5 2995s
  1129  1117 7.6926e+07  725  110          - 7.6723e+07      -  25.6 3043s
  1275  1261 7.6926e+07  794  110          - 7.6723e+07      -  23.6 3089s
  1421  1408 7.6926e+07  864  108          - 7.6723e+07      -  21.6 3097s
  1567  1551 7.7010e+07  934  108          - 7.6723e+07      -  19.8 3145s
  1713  1695 7.7012e+07 1001  104          - 7.6723e+07      -  18.3 3153s
  1859  1840 7.7012e+07 1074  104          - 7.6723e+07      -  17.3 3202s
  2002  1983 7.7013e+07 1144  104          - 7.6723e+07      -  16.2 3208s
  2148  2123 7.7022e+07 1211  102          - 7.6723e+07      -  15.3 3258s
  2290  2260 7.7022e+07 1284  114          - 7.6723e+07      -  15.8 3307s
  2433  2369 7.6888e+07  195  165          - 7.6723e+07      -  16.7 3393s
  2434  2370 7.6802e+07   13  165          - 7.6723e+07      -  16.7 3444s
  2435  2370 7.6855e+07  380  220          - 7.6723e+07      -  16.7 3501s
  2436  2371 7.6805e+07  172  167          - 7.6723e+07      -  16.7 3507s
  2437  2372 7.6926e+07  874  164          - 7.6723e+07      -  16.7 3510s
  2438  2372 7.7012e+07  979  183          - 7.6745e+07      -  16.7 3516s
  2440  2374 7.6891e+07  511  261          - 7.6762e+07      -  16.7 3523s
  2441  2374 7.6925e+07  721  269          - 7.6764e+07      -  16.7 3526s
  2442  2375 7.6806e+07  240  188          - 7.6768e+07      -  16.7 3530s
  2444  2376 7.6928e+07  676  280          - 7.6772e+07      -  16.7 3538s
  2445  2377 7.6986e+07  855  282          - 7.6774e+07      -  16.7 3540s
  2446  2378 7.7013e+07 1075  288          - 7.6775e+07      -  16.7 3545s
  2448  2379 7.7016e+07 1122  298          - 7.6776e+07      -  16.6 3553s
  2449  2380 7.6983e+07  769  308          - 7.6776e+07      -  16.6 3555s
  2450  2380 7.6848e+07  473  306          - 7.6776e+07      -  16.6 3560s
  2452  2382 7.6804e+07   49  324          - 7.6777e+07      -  16.6 3567s
  2453  2382 7.6888e+07  195  328          - 7.6777e+07      -  16.6 3570s
  2454  2383 7.6802e+07   13  334          - 7.6777e+07      -  16.6 3575s
  2456  2384 7.6805e+07  172  340          - 7.6777e+07      -  16.6 3583s
  2457  2385 7.6926e+07  874  336          - 7.6777e+07      -  16.6 3586s
  2458  2386 7.7012e+07  979  344          - 7.6777e+07      -  16.6 3590s
  2460  2387 7.6891e+07  511  342          - 7.6777e+07      -  16.6 3598s
  2461  2388 7.6925e+07  721  344          - 7.6777e+07      -  16.6 3601s
  2462  2388 7.6806e+07  240  350          - 7.6777e+07      -  16.5 3606s
  2464  2390 7.6928e+07  676  360          - 7.6777e+07      -  16.5 3613s
  2465  2390 7.6986e+07  855  360          - 7.6777e+07      -  16.5 3615s
  2467  2392 7.7033e+07 1144  362          - 7.6777e+07      -  16.5 3621s
  2468  2392 7.7016e+07 1122  358          - 7.6777e+07      -  16.5 3625s
  2470  2394 7.6848e+07  473  342          - 7.6777e+07      -  16.5 3834s
  2471  2394 7.6929e+07  870  414          - 7.6777e+07      -  16.5 3836s
  2472  2395 7.6804e+07   49  350          - 7.6777e+07      -  16.5 3841s
  2474  2396 7.6802e+07   13  354          - 7.6778e+07      -  16.5 3847s
  2476  2398 7.6805e+07  172  364          - 7.6778e+07      -  16.5 3894s
  2477  2398 7.6926e+07  874  358          - 7.6778e+07      -  16.4 3896s
  2478  2399 7.7012e+07  979  421          - 7.6778e+07      -  16.4 3942s
  2479  2400 7.6846e+07  477  421          - 7.6778e+07      -  16.4 3945s
  2480  2400 7.6891e+07  511  374          - 7.6778e+07      -  16.4 3993s
  2481  2401 7.6925e+07  721  286          - 7.6778e+07      -  16.4 3995s
  2482  2402 7.6806e+07  240  290          - 7.6778e+07      -  16.4 4041s
  2484  2403 7.6928e+07  676  292          - 7.6778e+07      -  16.4 4090s
  2486  2404 7.7013e+07 1075  294          - 7.6779e+07      -  16.4 4302s
  2487  2405 7.7033e+07 1144  315          - 7.6779e+07      -  16.4 4305s
  2488  2406 7.7016e+07 1122  286          - 7.6779e+07      -  16.4 4352s
  2489  2406 7.6983e+07  769  290          - 7.6779e+07      -  16.4 4355s
  2490  2407 7.6848e+07  473  477          - 7.6779e+07      -  16.4 4401s
  2492  2408 7.6804e+07   49  366          - 7.6779e+07      -  16.3 4450s
  2494  2410 7.6802e+07   13  376          - 7.6779e+07      -  16.3 4658s
  2495  2410 7.6855e+07  380  372          - 7.6779e+07      -  16.3 4660s
  2496  2411 7.6805e+07  172  372          - 7.6779e+07      -  16.3 4864s
  2497  2412 7.6926e+07  874  374          - 7.6779e+07      -  16.3 4866s
  2498  2412 7.7012e+07  979  376          - 7.6779e+07      -  16.3 4870s
  2500  2414 7.6891e+07  511  366          - 7.6780e+07      -  16.3 4878s
  2501  2414 7.6925e+07  721  374          - 7.6780e+07      -  16.3 4880s
  2502  2415 7.6806e+07  240  384          - 7.6780e+07      -  16.3 4925s
  2504  2416 7.6928e+07  676  388          - 7.6780e+07      -  16.3 5177s
  2506  2418 7.7013e+07 1075  392          - 7.6780e+07      -  16.3 5184s
  2507  2418 7.7033e+07 1144  396          - 7.6780e+07      -  16.2 5186s
  2508  2419 7.7016e+07 1122  390          - 7.6780e+07      -  16.2 5191s
  2510  2420 7.6848e+07  473  392          - 7.6780e+07      -  16.2 5197s
  2511  2421 7.6929e+07  870  390          - 7.6780e+07      -  16.2 5200s
  2512  2422 7.6804e+07   49  386          - 7.6780e+07      -  16.2 5451s
  2514  2423 7.6802e+07   13  388          - 7.6780e+07      -  16.2 5457s
  2516  2424 7.6805e+07  172  390          - 7.6780e+07      -  16.2 5463s
  2517  2425 7.6926e+07  874  422          - 7.6780e+07      -  16.2 5466s
  2518  2426 7.7012e+07  979  427          - 7.6780e+07      -  16.2 5512s
  2520  2427 7.6891e+07  511  397          - 7.6780e+07      -  16.2 5560s
  2522  2428 7.6806e+07  240  428          - 7.6780e+07      -  16.2 5609s
  2523  2429 7.6925e+07  722  428          - 7.6780e+07      -  16.1 5611s
  2524  2430 7.6928e+07  676  432          - 7.6780e+07      -  16.1 5820s
  2526  2431 7.7013e+07 1075  432          - 7.6780e+07      -  16.1 5827s
  2528  2432 7.7016e+07 1122  434          - 7.6781e+07      -  16.1 5833s
  2529  2433 7.6983e+07  769  436          - 7.6781e+07      -  16.1 5836s
  2530  2434 7.6848e+07  473  404          - 7.6781e+07      -  16.1 6088s
  2531  2434 7.6929e+07  870  416          - 7.6781e+07      -  16.1 6090s
  2532  2435 7.6804e+07   49  432          - 7.6781e+07      -  16.1 6095s
  2534  2436 7.6802e+07   13  408          - 7.6781e+07      -  16.1 6101s
  2536  2438 7.6805e+07  172  412          - 7.6781e+07      -  16.1 6107s
  2537  2438 7.6926e+07  874  414          - 7.6781e+07      -  16.1 6110s
H 2537  2314                    8.193249e+07 7.6781e+07  6.29%  16.1 6154s
H 2537  2196                    7.685163e+07 7.6781e+07  0.09%  16.1 6278s
  2538  2197 7.6852e+07  979  412 7.6852e+07 7.6781e+07  0.09%  16.1 6483s
  2539  2198 7.6846e+07  477  412 7.6852e+07 7.6781e+07  0.09%  16.0 6485s
  2542  2201 7.6806e+07  240  165 7.6852e+07 7.6781e+07  0.09%   112 6518s
  2544  2202 7.6852e+07  676  230 7.6852e+07 7.6781e+07  0.09%   112 6729s
  2545  2203 7.6852e+07  855  160 7.6852e+07 7.6781e+07  0.09%   112 6774s
  2546  2204 7.6852e+07 1075  176 7.6852e+07 7.6781e+07  0.09%   111 6775s
H 2546  2093                    7.680854e+07 7.6781e+07  0.04%   111 6941s
  2549  2095 7.6809e+07  769   54 7.6809e+07 7.6781e+07  0.04%   111 6946s
  2553  2099 7.6809e+07  195  165 7.6809e+07 7.6781e+07  0.04%   130 6960s
  2556  2101 7.6805e+07  172  140 7.6809e+07 7.6781e+07  0.04%   130 6965s
  2560  2104 7.6809e+07  511  279 7.6809e+07 7.6781e+07  0.04%   130 6970s
  2562  2105 7.6806e+07  240  197 7.6809e+07 7.6781e+07  0.04%   129 7176s
  2566  2108 7.6809e+07 1075  214 7.6809e+07 7.6781e+07  0.04%   129 7181s
  2570  2110 7.6809e+07  473  308 7.6809e+07 7.6781e+07  0.04%   129 7185s
  2574  2114 7.6802e+07   13  165 7.6809e+07 7.6781e+07  0.04%   151 7194s
  2576  2115 7.6805e+07  172  205 7.6809e+07 7.6781e+07  0.04%   151 7195s
  2581  2119 7.6809e+07  721  243 7.6809e+07 7.6781e+07  0.04%   151 7200s
  2587  2123 7.6809e+07 1144  286 7.6809e+07 7.6781e+07  0.04%   150 7409s
  2588  2123 7.6809e+07 1122  350 7.6809e+07 7.6781e+07  0.04%   150 7410s
  2593  2127 7.6809e+07  195  318 7.6809e+07 7.6781e+07  0.04%   150 7415s
  2598  2130 7.6809e+07  979  342 7.6809e+07 7.6781e+07  0.04%   150 7420s
  2603  2133 7.6809e+07  722  352 7.6809e+07 7.6781e+07  0.04%   149 7425s
  2609  2137 7.6809e+07  769  366 7.6809e+07 7.6781e+07  0.04%   149 7430s
  2616  2142 7.6805e+07  172  362 7.6809e+07 7.6781e+07  0.04%   149 7435s
H 2620  2037                    7.680689e+07 7.6781e+07  0.03%   148 7645s
  2628  2042 7.6807e+07 1122  378 7.6807e+07 7.6781e+07  0.03%   148 7650s
  2635  2047 7.6807e+07  380  410 7.6807e+07 7.6781e+07  0.03%   148 7655s
  2641  2051 7.6807e+07  721  412 7.6807e+07 7.6781e+07  0.03%   147 7660s
  2648  2055 7.6807e+07 1122  404 7.6807e+07 7.6781e+07  0.03%   147 7665s
  2654  2059 7.6802e+07   13  369 7.6807e+07 7.6781e+07  0.03%   147 7670s
  2661  2064 7.6807e+07  721  396 7.6807e+07 7.6781e+07  0.03%   146 7675s
  2667  2068 7.6807e+07 1144  412 7.6807e+07 7.6781e+07  0.03%   146 7680s
  2674  2073 7.6802e+07   13  414 7.6807e+07 7.6781e+07  0.03%   145 7685s
  2681  2077 7.6807e+07  721  412 7.6807e+07 7.6781e+07  0.03%   145 7690s
  2687  2081 7.6807e+07 1144  416 7.6807e+07 7.6781e+07  0.03%   145 7695s
  2693  2085 7.6807e+07  195  430 7.6807e+07 7.6781e+07  0.03%   144 7700s
  2699  2089 7.6807e+07  477  427 7.6807e+07 7.6781e+07  0.03%   144 7705s
H 2704  1986                    7.680677e+07 7.6781e+07  0.03%   144 7751s
  2709  1989 7.6807e+07  769  438 7.6807e+07 7.6781e+07  0.03%   144 7755s
  2715  1993 7.6807e+07  380  426 7.6807e+07 7.6781e+07  0.03%   143 7760s
  2721  1997 7.6807e+07  721  437 7.6807e+07 7.6781e+07  0.03%   143 7765s
  2727  2001 7.6807e+07 1144  430 7.6807e+07 7.6782e+07  0.03%   143 7770s
  2733  2005 7.6807e+07  195  434 7.6807e+07 7.6782e+07  0.03%   142 7775s
  2737  2008 7.6807e+07  874  421 7.6807e+07 7.6782e+07  0.03%   142 7780s
  2743  2012 7.6807e+07  722  429 7.6807e+07 7.6782e+07  0.03%   142 7785s
  2749  2016 7.6807e+07  769  431 7.6807e+07 7.6782e+07  0.03%   141 7790s
  2755  2020 7.6807e+07  380  406 7.6807e+07 7.6782e+07  0.03%   141 7795s
  2760  2023 7.6807e+07  511  413 7.6807e+07 7.6782e+07  0.03%   141 7800s
  2765  2026 7.6807e+07  855  409 7.6807e+07 7.6782e+07  0.03%   141 7805s
  2771  2030 7.6807e+07  870  416 7.6807e+07 7.6782e+07  0.03%   140 7810s
  2775  2033 7.6807e+07  380  420 7.6807e+07 7.6782e+07  0.03%   140 7824s
  2776  2034 7.6805e+07  172  420 7.6807e+07 7.6782e+07  0.03%   140 8073s
  2777  2036 7.6807e+07  874  165 7.6807e+07 7.6782e+07  0.03%   190 8077s
  2779  2037 7.6807e+07  477  138 7.6807e+07 7.6782e+07  0.03%   190 8282s
  2783  2040 7.6807e+07  722   45 7.6807e+07 7.6782e+07  0.03%   190 8285s
  2790  2045 7.6807e+07  473  207 7.6807e+07 7.6782e+07  0.03%   189 8290s
  2796  2049 7.6805e+07  172  295 7.6807e+07 7.6782e+07  0.03%   189 8296s
  2800  2051 7.6807e+07  511  294 7.6807e+07 7.6782e+07  0.03%   189 8300s
  2806  2055 7.6807e+07 1075  321 7.6807e+07 7.6782e+07  0.03%   188 8305s
  2813  2060 7.6807e+07  195  335 7.6807e+07 7.6783e+07  0.03%   188 8310s
  2820  2065 7.6807e+07  511  361 7.6807e+07 7.6783e+07  0.03%   187 8315s
  2827  2069 7.6807e+07 1144  382 7.6807e+07 7.6783e+07  0.03%   187 8320s
  2835  2075 7.6807e+07  380  381 7.6807e+07 7.6783e+07  0.03%   186 8325s
  2841  2079 7.6807e+07  721  339 7.6807e+07 7.6784e+07  0.03%   186 8330s
  2848  2083 7.6807e+07 1122  369 7.6807e+07 7.6784e+07  0.03%   186 8335s
  2856  2089 7.6805e+07  172  367 7.6807e+07 7.6785e+07  0.03%   185 8340s
  2860  2091 7.6807e+07  511  381 7.6807e+07 7.6785e+07  0.03%   185 8426s
  2865  2095 7.6807e+07  855  379 7.6807e+07 7.6785e+07  0.03%   185 8430s
  2872  2099 7.6804e+07   49  379 7.6807e+07 7.6785e+07  0.03%   184 8435s
  2880  2105 7.6807e+07  511  397 7.6807e+07 7.6785e+07  0.03%   184 8440s
  2886  2109 7.6807e+07 1075  389 7.6807e+07 7.6785e+07  0.03%   183 8445s
  2893  2113 7.6807e+07  195  395 7.6807e+07 7.6785e+07  0.03%   183 8450s
  2900  2118 7.6807e+07  511  395 7.6807e+07 7.6786e+07  0.03%   182 8455s
  2906  2122 7.6807e+07 1075  404 7.6807e+07 7.6786e+07  0.03%   182 8460s
  2913  2127 7.6807e+07  195  403 7.6807e+07 7.6786e+07  0.03%   181 8465s
H 2913  2018                    7.680545e+07 7.6786e+07  0.03%   181 8549s
  2915  2019 7.6805e+07  380  401 7.6805e+07 7.6786e+07  0.03%   181 8550s
  2922  2024 7.6805e+07  240  417 7.6805e+07 7.6786e+07  0.03%   181 8555s
  2928  2028 7.6805e+07 1122  420 7.6805e+07 7.6786e+07  0.03%   181 8560s
  2934  2032 7.6802e+07   13  400 7.6805e+07 7.6786e+07  0.03%   180 8565s
  2941  2036 7.6805e+07  721  402 7.6805e+07 7.6786e+07  0.02%   180 8570s
  2947  2040 7.6805e+07 1144  423 7.6805e+07 7.6786e+07  0.02%   179 8575s
  2950  2042 7.6805e+07  473  426 7.6805e+07 7.6786e+07  0.02%   179 8586s
H 2951  1938                    7.680540e+07 7.6786e+07  0.02%   179 8669s
  2953  1941 7.6805e+07  195  165 7.6805e+07 7.6786e+07  0.02%   219 8672s
  2957  1944 7.6805e+07  874   27 7.6805e+07 7.6786e+07  0.02%   219 8675s
  2965  1949 7.6805e+07  855  255 7.6805e+07 7.6786e+07  0.02%   219 8680s
  2973  1954 7.6805e+07  195  287 7.6805e+07 7.6786e+07  0.02%   218 8685s
  2980  1959 7.6805e+07  511  318 7.6805e+07 7.6786e+07  0.02%   217 8690s
  2988  1964 7.6805e+07 1122  331 7.6805e+07 7.6786e+07  0.02%   217 8695s
  2996  1970 7.6805e+07  172  306 7.6805e+07 7.6786e+07  0.02%   216 8700s
  3004  1975 7.6805e+07  676  314 7.6805e+07 7.6786e+07  0.02%   216 8705s
  3012  1980 7.6804e+07   49  322 7.6805e+07 7.6786e+07  0.02%   215 8710s
  3019  1985 7.6805e+07  477  364 7.6805e+07 7.6786e+07  0.02%   215 8715s
  3028  1991 7.6805e+07 1122  375 7.6805e+07 7.6786e+07  0.02%   214 8720s
  3037  1997 7.6805e+07  874  375 7.6805e+07 7.6786e+07  0.02%   213 8725s
  3044  2002 7.6805e+07  676  375 7.6805e+07 7.6786e+07  0.02%   213 8730s
  3052  2007 7.6804e+07   49  385 7.6805e+07 7.6786e+07  0.02%   212 8735s
  3061  2013 7.6805e+07  721  386 7.6805e+07 7.6786e+07  0.02%   212 8740s
  3067  2017 7.6805e+07 1144  384 7.6805e+07 7.6787e+07  0.02%   211 8745s
  3074  2022 7.6802e+07   13  357 7.6805e+07 7.6787e+07  0.02%   211 8750s
  3082  2027 7.6805e+07  240  389 7.6805e+07 7.6787e+07  0.02%   210 8755s
  3090  2032 7.6805e+07  473  397 7.6805e+07 7.6787e+07  0.02%   210 8760s
  3096  2036 7.6805e+07  172  392 7.6805e+07 7.6787e+07  0.02%   209 8765s
  3103  2041 7.6805e+07  722  395 7.6805e+07 7.6787e+07  0.02%   209 8770s
  3110  2046 7.6805e+07  473  400 7.6805e+07 7.6787e+07  0.02%   208 8775s
  3116  2050 7.6805e+07  172  398 7.6805e+07 7.6788e+07  0.02%   208 8780s
  3123  2054 7.6805e+07  722  398 7.6805e+07 7.6788e+07  0.02%   207 8785s
  3130  2059 7.6805e+07  473  392 7.6805e+07 7.6788e+07  0.02%   207 8790s
  3137  2064 7.6805e+07  874  396 7.6805e+07 7.6788e+07  0.02%   207 8795s
  3143  2068 7.6805e+07  722  391 7.6805e+07 7.6788e+07  0.02%   206 8800s
  3150  2072 7.6805e+07  473  388 7.6805e+07 7.6788e+07  0.02%   206 8805s
  3154  2075 7.6802e+07   13  392 7.6805e+07 7.6788e+07  0.02%   205 8814s
  3155  2076 7.6805e+07  380  392 7.6805e+07 7.6788e+07  0.02%   205 8899s
  3156  2077     cutoff   76      7.6805e+07 7.6788e+07  0.02%   247 8900s

Cutting planes:
  Gomory: 11
  MIR: 69
  Flow cover: 29
  Zero half: 14
  Lazy constraints: 12

Explored 3158 nodes (810726 simplex iterations) in 8900.77 seconds
Thread count was 4 (of 4 available processors)

Solution count 7: 7.68054e+07 7.68054e+07 7.68068e+07 ... 8.19325e+07
Pool objective bound 7.68037e+07

Optimal solution found (tolerance 1.00e-04)
Best objective 7.680539575610e+07, best bound 7.680370339414e+07, gap 0.0022%
